nNurses = 199;
nHours = 38;
minHours = 10;
maxHours = 16;
maxConsec = 7;
maxPresence = 18;
demand = [35, 36, 33, 29, 33, 28, 25, 30, 25, 25, 21, 16, 19, 22, 26, 23, 19, 21, 21, 19, 16, 18, 23, 25, 20, 23, 20, 21, 26, 22, 27, 29, 29, 27, 27, 25, 21, 25];
